NAME : ClusterId_252 
COMMENT : (Gillet and Johnson) 
TYPE : CVRP 
DIMENSION : 6 
EDGE_WEIGHT_TYPE : EUC_2D 
CAPACITY : 500 
NODE_COORD_SECTION 
252 -50 60 
27 -61 66 
194 -39 61 
149 -58 64 
102 -42 63 
115 -53 62 
DEMAND_SECTION 
252 200
27 29
194 13
149 6
102 33
115 78
DEPOT_SECTION 
252
 -1
EOF